161 5
10 10 10 10 10 

0 0 0 0 0 0 5 2 24 46 58 80 
0 0 0 0 0 0 10 3 14 15 16 17 18 19 20 21 22 
7 1 0 0 1 0 2 13 4 
2 5 0 0 10 0 1 5 
10 2 0 0 7 0 1 6 
5 7 0 0 5 0 1 7 
9 3 0 0 6 0 1 8 
5 6 0 0 1 0 1 9 
6 6 0 0 5 0 1 10 
7 6 0 0 6 0 1 11 
3 2 0 0 7 0 1 12 
3 10 0 0 3 0 1 23 
3 8 0 0 4 0 1 23 
8 3 0 0 4 0 1 23 
3 6 0 0 2 0 1 23 
1 6 0 0 5 0 1 23 
4 5 0 0 5 0 2 23 42 
9 4 0 0 2 0 1 23 
3 4 0 0 4 0 1 23 
8 6 0 0 8 0 1 23 
4 3 0 0 8 0 1 23 
3 7 0 0 7 0 1 23 
0 0 0 0 0 0 1 126 
0 0 0 0 0 0 2 25 27 
2 1 0 0 1 0 2 30 26 
10 9 0 0 7 0 1 28 
7 2 0 0 7 0 1 28 
10 4 0 0 4 0 2 31 29 
2 4 0 0 2 0 4 36 35 34 32 
6 5 0 0 6 0 5 37 36 35 34 33 
1 6 0 0 5 0 3 37 36 35 
9 4 0 0 3 0 2 37 33 
10 7 0 0 4 0 3 44 42 38 
9 6 0 0 4 0 3 43 42 38 
5 4 0 0 5 0 3 44 42 39 
3 6 0 0 5 0 2 42 38 
6 5 0 0 8 0 3 43 42 41 
3 6 0 0 7 0 2 39 54 
2 7 0 0 4 0 1 40 
8 3 0 0 6 0 1 41 
1 5 0 0 5 0 1 45 
4 1 0 0 3 0 1 45 
6 9 0 0 8 0 1 45 
7 6 0 0 6 0 1 45 
0 0 0 0 0 0 1 126 
0 0 0 0 0 0 4 47 48 55 56 
1 0 0 0 1 0 1 49 
4 0 0 0 4 0 3 54 53 51 
5 0 0 0 2 0 2 53 50 
3 0 0 0 5 0 2 51 103 
7 0 0 0 10 0 1 52 
8 0 0 0 8 0 1 57 
3 0 0 0 8 0 1 57 
1 0 0 0 3 0 1 57 
8 0 0 0 4 0 1 57 
9 0 0 0 5 0 1 57 
0 0 0 0 0 0 2 102 114 
0 0 0 0 0 0 2 59 60 
7 1 0 0 1 0 2 63 62 
4 6 0 0 7 0 2 65 61 
5 5 0 0 6 0 1 63 
4 4 0 0 3 0 2 66 65 
10 3 0 0 5 0 1 64 
10 6 0 0 7 0 2 68 66 
1 7 0 0 8 0 4 72 70 68 67 
9 5 0 0 4 0 3 72 70 67 
10 5 0 0 6 0 2 71 69 
3 6 0 0 7 0 2 71 69 
5 8 0 0 6 0 4 78 75 74 73 
3 5 0 0 2 0 3 78 74 73 
4 3 0 0 5 0 2 78 76 
1 6 0 0 5 0 1 73 
8 7 0 0 7 0 1 76 
10 5 0 0 5 0 1 76 
4 2 0 0 3 0 1 76 
2 4 0 0 4 0 1 77 
4 6 0 0 3 0 1 79 
8 6 0 0 6 0 1 79 
0 0 0 0 0 0 1 126 
0 0 0 0 0 0 3 81 83 84 
5 1 0 0 2 0 3 94 90 82 
10 5 0 0 10 0 2 95 85 
2 5 0 0 6 0 4 94 90 89 87 
8 7 0 0 1 0 4 94 90 89 88 
10 5 0 0 7 0 2 89 86 
9 3 0 0 4 0 1 87 
2 5 0 0 6 0 1 88 
10 6 0 0 4 0 4 98 97 93 91 
1 6 0 0 9 0 2 97 91 
2 4 0 0 5 0 2 97 93 
3 5 0 0 4 0 1 92 
10 4 0 0 3 0 1 96 
1 7 0 0 6 0 1 96 
1 3 0 0 6 0 1 98 
7 7 0 0 3 0 1 98 
7 7 0 0 4 0 1 99 
3 4 0 0 10 0 1 100 
2 7 0 0 2 0 1 99 
5 6 0 0 2 0 1 101 
9 3 0 0 6 0 1 101 
0 0 0 0 0 0 1 126 
0 0 0 0 0 0 3 103 108 112 
2 0 0 1 0 0 2 106 104 
4 0 0 7 0 0 1 105 
9 0 0 7 0 0 3 111 110 107 
1 0 0 4 0 0 3 111 110 107 
4 0 0 6 0 0 1 109 
5 0 0 4 0 0 1 109 
6 0 0 4 0 0 1 113 
8 0 0 4 0 0 1 113 
5 0 0 8 0 0 1 113 
4 0 0 5 0 0 1 113 
0 0 0 0 0 0 1 126 
0 0 0 0 0 0 2 115 116 
7 1 0 0 0 0 2 118 117 
1 4 0 0 0 0 1 117 
7 6 0 0 0 0 2 120 119 
9 4 0 0 0 0 2 120 119 
5 5 0 0 0 0 2 122 121 
8 7 0 0 0 0 2 122 121 
1 3 0 0 0 0 2 124 123 
3 6 0 0 0 0 2 124 123 
2 7 0 0 0 0 1 125 
10 7 0 0 0 0 1 125 
0 0 0 0 0 0 1 126 
0 0 0 0 0 0 3 127 129 132 
6 0 0 0 1 0 2 136 128 
5 0 0 0 6 0 1 130 
2 0 0 0 2 0 3 135 134 133 
8 0 0 0 7 0 1 131 
1 0 0 0 6 0 2 134 133 
1 0 0 0 4 0 1 133 
9 0 0 0 1 0 1 137 
4 0 0 0 9 0 1 137 
1 0 0 0 8 0 1 137 
2 0 0 0 6 0 1 137 
0 0 0 0 0 0 1 138 
0 0 0 0 0 0 2 139 141 
5 0 0 1 0 0 2 143 140 
5 0 0 5 0 0 3 148 144 142 
3 0 0 6 0 0 3 148 147 145 
7 0 0 6 0 0 2 147 145 
9 0 0 5 0 0 2 147 145 
10 0 0 2 0 0 2 147 146 
5 0 0 7 0 0 1 146 
4 0 0 8 0 0 1 149 
7 0 0 5 0 0 1 149 
10 0 0 5 0 0 1 149 
0 0 0 0 0 0 1 150 
0 0 0 0 0 0 6 151 154 155 157 159 160 
9 1 0 0 0 0 1 152 
7 5 0 0 0 0 1 153 
1 6 0 0 0 0 1 156 
4 5 0 0 0 0 1 156 
5 3 0 0 0 0 1 156 
9 7 0 0 0 0 1 158 
1 7 0 0 0 0 1 158 
3 5 0 0 0 0 1 161 
10 2 0 0 0 0 1 161 
6 9 0 0 0 0 1 161 
0 0 0 0 0 0 0 
